Route #1: 20 29 23 24 25 26 30 21 22 28 27 42 46 44 43 53 45 52 48 47 50 49 70 51 41 55 54
Route #2: 32 31 34 56 57 39 68 40 38 37 69 67 66 65 64 62 63 59 58 61 60 14 35
Route #3: 1 11
Route #4: 5 3 4 9 7 8 10 6 71 12 16 17 13 2 19 15 18 33 36
Cost 241